p cnf 289 2131
82 129 135 142 0
144 152 165 218 220 0
139 164 224 0
127 157 228 0
96 105 109 120 0
57 130 0
53 55 99 0
95 118 122 124 0
48 161 168 175 0
42 179 181 193 235 0
112 114 186 239 242 0
85 172 189 198 244 0
39 140 192 197 0
166 171 176 202 0
207 252 0
93 116 201 0
90 91 98 101 0
89 103 150 0
88 159 169 0
110 131 137 187 0
86 134 190 0
70 75 79 80 0
66 69 145 151 0
62 63 64 158 0
59 61 0
52 54 56 100 0
51 117 149 0
47 50 167 0
45 46 178 180 0
40 41 43 121 182 0
38 84 188 0
73 78 195 0
65 67 146 0
34 156 185 0
104 107 119 0
31 32 205 0
102 206 209 211 0
212 213 214 0
87 132 191 0
83 136 143 0
147 154 170 215 0
81 141 0
216 217 287 0
219 221 0
60 138 163 222 225 0
58 227 229 230 0
49 162 231 232 0
44 183 184 0
123 125 233 0
194 236 0
68 237 240 243 0
173 199 245 246 0
35 247 0
94 203 248 250 0
208 251 253 255 0
92 115 210 256 257 0
-55 -118 0
-110 -258 0
-69 -258 0
-148 -258 0
-69 -110 0
-110 -148 0
-69 -148 0
-56 -106 0
-46 -106 0
-106 -182 0
-46 -56 0
-56 -182 0
-46 -182 0
-231 -260 0
-113 -260 0
-113 -231 0
-196 -248 0
-196 -256 0
-248 -256 0
-55 -258 0
-55 -106 0
-106 -258 0
-110 -118 0
-56 -118 0
-56 -110 0
-46 -69 0
-69 -260 0
-69 -196 0
-46 -260 0
-46 -196 0
-196 -260 0
-148 -182 0
-148 -231 0
-148 -248 0
-182 -231 0
-182 -248 0
-231 -248 0
-113 -256 0
-76 -261 0
-144 -261 0
-157 -261 0
-261 -262 0
-120 -261 0
-130 -261 0
-76 -144 0
-76 -157 0
-76 -262 0
-76 -120 0
-76 -130 0
-144 -157 0
-144 -262 0
-120 -144 0
-130 -144 0
-157 -262 0
-120 -157 0
-130 -157 0
-120 -262 0
-130 -262 0
-120 -130 0
-99 -168 0
-99 -193 0
-99 -198 0
-99 -192 0
-99 -238 0
-99 -202 0
-168 -193 0
-168 -198 0
-168 -192 0
-168 -238 0
-168 -202 0
-193 -198 0
-192 -193 0
-193 -238 0
-193 -202 0
-192 -198 0
-198 -238 0
-198 -202 0
-192 -238 0
-192 -202 0
-202 -238 0
-201 -264 0
-108 -264 0
-101 -264 0
-150 -264 0
-88 -264 0
-264 -265 0
-108 -201 0
-101 -201 0
-150 -201 0
-88 -201 0
-201 -265 0
-101 -108 0
-108 -150 0
-88 -108 0
-108 -265 0
-101 -150 0
-88 -101 0
-101 -265 0
-88 -150 0
-150 -265 0
-88 -265 0
-86 -266 0
-80 -266 0
-155 -266 0
-64 -266 0
-266 -267 0
-61 -266 0
-80 -86 0
-86 -155 0
-64 -86 0
-86 -267 0
-61 -86 0
-80 -155 0
-64 -80 0
-80 -267 0
-61 -80 0
-64 -155 0
-155 -267 0
-61 -155 0
-64 -267 0
-61 -64 0
-61 -267 0
-51 -223 0
-50 -223 0
-43 -223 0
-223 -234 0
-188 -223 0
-195 -223 0
-50 -51 0
-43 -51 0
-51 -234 0
-51 -188 0
-51 -195 0
-43 -50 0
-50 -234 0
-50 -188 0
-50 -195 0
-43 -234 0
-43 -188 0
-43 -195 0
-188 -234 0
-195 -234 0
-188 -195 0
-34 -67 0
-67 -200 0
-32 -67 0
-67 -206 0
-67 -268 0
-67 -269 0
-34 -200 0
-32 -34 0
-34 -206 0
-34 -268 0
-34 -269 0
-32 -200 0
-200 -206 0
-200 -268 0
-200 -269 0
-32 -206 0
-32 -268 0
-32 -269 0
-206 -268 0
-206 -269 0
-268 -269 0
-251 -270 0
-210 -270 0
-210 -251 0
-99 -261 0
-261 -264 0
-261 -266 0
-223 -261 0
-67 -261 0
-99 -264 0
-99 -266 0
-99 -223 0
-67 -99 0
-264 -266 0
-223 -264 0
-67 -264 0
-223 -266 0
-67 -266 0
-67 -223 0
-76 -168 0
-76 -201 0
-76 -86 0
-51 -76 0
-34 -76 0
-168 -201 0
-86 -168 0
-51 -168 0
-34 -168 0
-86 -201 0
-51 -201 0
-34 -201 0
-51 -86 0
-34 -86 0
-34 -51 0
-144 -193 0
-108 -144 0
-80 -144 0
-50 -144 0
-144 -200 0
-108 -193 0
-80 -193 0
-50 -193 0
-193 -200 0
-80 -108 0
-50 -108 0
-108 -200 0
-50 -80 0
-80 -200 0
-50 -200 0
-157 -198 0
-101 -157 0
-155 -157 0
-43 -157 0
-32 -157 0
-101 -198 0
-155 -198 0
-43 -198 0
-32 -198 0
-101 -155 0
-43 -101 0
-32 -101 0
-43 -155 0
-32 -155 0
-32 -43 0
-192 -262 0
-150 -262 0
-64 -262 0
-234 -262 0
-206 -262 0
-262 -270 0
-150 -192 0
-64 -192 0
-192 -234 0
-192 -206 0
-192 -270 0
-64 -150 0
-150 -234 0
-150 -206 0
-150 -270 0
-64 -234 0
-64 -206 0
-64 -270 0
-206 -234 0
-234 -270 0
-206 -270 0
-120 -238 0
-88 -120 0
-120 -267 0
-120 -188 0
-120 -268 0
-120 -251 0
-88 -238 0
-238 -267 0
-188 -238 0
-238 -268 0
-238 -251 0
-88 -267 0
-88 -188 0
-88 -268 0
-88 -251 0
-188 -267 0
-267 -268 0
-251 -267 0
-188 -268 0
-188 -251 0
-251 -268 0
-130 -202 0
-130 -265 0
-61 -130 0
-130 -195 0
-130 -269 0
-130 -210 0
-202 -265 0
-61 -202 0
-195 -202 0
-202 -269 0
-202 -210 0
-61 -265 0
-195 -265 0
-265 -269 0
-210 -265 0
-61 -195 0
-61 -269 0
-61 -210 0
-195 -269 0
-195 -210 0
-210 -269 0
-133 -135 0
-71 -133 0
-133 -272 0
-96 -133 0
-71 -135 0
-135 -272 0
-96 -135 0
-71 -272 0
-71 -96 0
-96 -272 0
-53 -95 0
-48 -53 0
-39 -53 0
-53 -74 0
-48 -95 0
-39 -95 0
-74 -95 0
-39 -48 0
-48 -74 0
-39 -74 0
-187 -273 0
-190 -273 0
-63 -273 0
-128 -273 0
-187 -190 0
-63 -187 0
-128 -187 0
-63 -190 0
-128 -190 0
-63 -128 0
-100 -226 0
-149 -226 0
-126 -226 0
-84 -226 0
-100 -149 0
-100 -126 0
-84 -100 0
-126 -149 0
-84 -149 0
-84 -126 0
-212 -274 0
-212 -275 0
-77 -212 0
-274 -275 0
-77 -274 0
-77 -275 0
-194 -237 0
-194 -199 0
-194 -203 0
-199 -237 0
-203 -237 0
-199 -203 0
-53 -133 0
-133 -273 0
-133 -226 0
-133 -212 0
-133 -194 0
-53 -273 0
-53 -226 0
-53 -212 0
-53 -194 0
-226 -273 0
-212 -273 0
-194 -273 0
-212 -226 0
-194 -226 0
-194 -212 0
-95 -135 0
-135 -187 0
-100 -135 0
-135 -274 0
-135 -237 0
-95 -187 0
-95 -100 0
-95 -274 0
-95 -237 0
-100 -187 0
-187 -274 0
-187 -237 0
-100 -274 0
-100 -237 0
-237 -274 0
-48 -71 0
-71 -190 0
-71 -149 0
-71 -275 0
-71 -199 0
-48 -190 0
-48 -149 0
-48 -275 0
-48 -199 0
-149 -190 0
-190 -275 0
-190 -199 0
-149 -275 0
-149 -199 0
-199 -275 0
-77 -203 0
-39 -272 0
-63 -272 0
-126 -272 0
-39 -63 0
-39 -126 0
-63 -126 0
-74 -96 0
-96 -128 0
-84 -96 0
-74 -128 0
-74 -84 0
-84 -128 0
-129 -276 0
-129 -165 0
-129 -164 0
-129 -228 0
-109 -129 0
-165 -276 0
-164 -276 0
-228 -276 0
-109 -276 0
-164 -165 0
-165 -228 0
-109 -165 0
-164 -228 0
-109 -164 0
-109 -228 0
-122 -175 0
-122 -179 0
-122 -239 0
-122 -244 0
-122 -241 0
-175 -179 0
-175 -239 0
-175 -244 0
-175 -241 0
-179 -239 0
-179 -244 0
-179 -241 0
-239 -244 0
-239 -241 0
-241 -244 0
-116 -252 0
-252 -277 0
-252 -254 0
-98 -252 0
-169 -252 0
-116 -277 0
-116 -254 0
-98 -116 0
-116 -169 0
-254 -277 0
-98 -277 0
-169 -277 0
-98 -254 0
-169 -254 0
-98 -169 0
-167 -178 0
-41 -167 0
-41 -178 0
-278 -279 0
-132 -278 0
-136 -278 0
-72 -278 0
-132 -279 0
-136 -279 0
-72 -279 0
-132 -136 0
-72 -132 0
-72 -136 0
-60 -227 0
-60 -271 0
-60 -97 0
-49 -60 0
-227 -271 0
-97 -227 0
-49 -227 0
-97 -271 0
-49 -271 0
-49 -97 0
-122 -129 0
-129 -252 0
-129 -278 0
-60 -129 0
-122 -252 0
-122 -278 0
-60 -122 0
-252 -278 0
-60 -252 0
-60 -278 0
-175 -276 0
-116 -276 0
-276 -279 0
-227 -276 0
-116 -175 0
-175 -279 0
-175 -227 0
-116 -279 0
-116 -227 0
-227 -279 0
-165 -179 0
-165 -277 0
-165 -167 0
-132 -165 0
-165 -271 0
-179 -277 0
-167 -179 0
-132 -179 0
-179 -271 0
-167 -277 0
-132 -277 0
-271 -277 0
-132 -167 0
-167 -271 0
-132 -271 0
-164 -239 0
-164 -254 0
-164 -178 0
-136 -164 0
-97 -164 0
-239 -254 0
-178 -239 0
-136 -239 0
-97 -239 0
-178 -254 0
-136 -254 0
-97 -254 0
-136 -178 0
-97 -178 0
-97 -136 0
-228 -244 0
-98 -228 0
-41 -228 0
-72 -228 0
-49 -228 0
-98 -244 0
-41 -244 0
-72 -244 0
-49 -244 0
-41 -98 0
-72 -98 0
-49 -98 0
-41 -72 0
-41 -49 0
-49 -72 0
-109 -241 0
-109 -169 0
-169 -241 0
-139 -218 0
-105 -218 0
-57 -218 0
-105 -139 0
-57 -139 0
-57 -105 0
-181 -186 0
-181 -280 0
-166 -181 0
-186 -280 0
-166 -186 0
-166 -280 0
-134 -137 0
-79 -137 0
-66 -137 0
-79 -134 0
-66 -134 0
-66 -79 0
-156 -177 0
-177 -249 0
-119 -177 0
-156 -249 0
-119 -156 0
-119 -249 0
-163 -229 0
-123 -163 0
-163 -174 0
-123 -229 0
-174 -229 0
-123 -174 0
-240 -245 0
-240 -253 0
-115 -240 0
-245 -253 0
-115 -245 0
-115 -253 0
-137 -177 0
-137 -163 0
-137 -240 0
-163 -177 0
-177 -240 0
-163 -240 0
-134 -156 0
-134 -229 0
-134 -245 0
-156 -229 0
-156 -245 0
-229 -245 0
-181 -218 0
-79 -218 0
-218 -249 0
-79 -181 0
-181 -249 0
-79 -249 0
-139 -186 0
-66 -139 0
-119 -139 0
-66 -186 0
-119 -186 0
-66 -119 0
-105 -280 0
-105 -123 0
-105 -253 0
-123 -280 0
-253 -280 0
-123 -253 0
-57 -166 0
-57 -174 0
-57 -115 0
-166 -174 0
-115 -166 0
-115 -174 0
-82 -153 0
-153 -281 0
-152 -153 0
-82 -281 0
-82 -152 0
-152 -281 0
-37 -207 0
-37 -93 0
-33 -37 0
-93 -207 0
-33 -207 0
-33 -93 0
-54 -282 0
-117 -282 0
-282 -283 0
-78 -282 0
-54 -117 0
-54 -283 0
-54 -78 0
-117 -283 0
-78 -117 0
-78 -283 0
-65 -284 0
-65 -185 0
-65 -209 0
-65 -285 0
-185 -284 0
-209 -284 0
-284 -285 0
-185 -209 0
-185 -285 0
-209 -285 0
-213 -259 0
-111 -213 0
-147 -213 0
-213 -216 0
-111 -259 0
-147 -259 0
-216 -259 0
-111 -147 0
-111 -216 0
-147 -216 0
-138 -219 0
-58 -219 0
-183 -219 0
-219 -286 0
-58 -138 0
-138 -183 0
-138 -286 0
-58 -183 0
-58 -286 0
-183 -286 0
-37 -153 0
-153 -282 0
-65 -153 0
-153 -213 0
-153 -219 0
-37 -282 0
-37 -65 0
-37 -213 0
-37 -219 0
-65 -282 0
-213 -282 0
-219 -282 0
-65 -213 0
-65 -219 0
-213 -219 0
-82 -207 0
-54 -82 0
-82 -284 0
-82 -259 0
-82 -138 0
-54 -207 0
-207 -284 0
-207 -259 0
-138 -207 0
-54 -284 0
-54 -259 0
-54 -138 0
-259 -284 0
-138 -284 0
-138 -259 0
-93 -281 0
-117 -281 0
-185 -281 0
-111 -281 0
-58 -281 0
-93 -117 0
-93 -185 0
-93 -111 0
-58 -93 0
-117 -185 0
-111 -117 0
-58 -117 0
-111 -185 0
-58 -185 0
-58 -111 0
-33 -152 0
-209 -283 0
-147 -283 0
-183 -283 0
-147 -209 0
-183 -209 0
-147 -183 0
-78 -285 0
-78 -216 0
-78 -286 0
-216 -285 0
-285 -286 0
-216 -286 0
-142 -288 0
-142 -220 0
-142 -224 0
-127 -142 0
-220 -288 0
-224 -288 0
-127 -288 0
-220 -224 0
-127 -220 0
-127 -224 0
-124 -161 0
-124 -235 0
-124 -242 0
-85 -124 0
-161 -235 0
-161 -242 0
-85 -161 0
-235 -242 0
-85 -235 0
-85 -242 0
-75 -145 0
-75 -289 0
-75 -158 0
-75 -263 0
-145 -289 0
-145 -158 0
-145 -263 0
-158 -289 0
-263 -289 0
-158 -263 0
-107 -204 0
-31 -204 0
-102 -204 0
-30 -204 0
-31 -107 0
-102 -107 0
-30 -107 0
-31 -102 0
-30 -31 0
-30 -102 0
-28 -29 0
-29 -87 0
-29 -83 0
-27 -29 0
-29 -154 0
-29 -81 0
-28 -87 0
-28 -83 0
-27 -28 0
-28 -154 0
-28 -81 0
-83 -87 0
-27 -87 0
-87 -154 0
-81 -87 0
-27 -83 0
-83 -154 0
-81 -83 0
-27 -154 0
-27 -81 0
-81 -154 0
-222 -230 0
-26 -222 0
-25 -222 0
-222 -232 0
-44 -222 0
-222 -233 0
-26 -230 0
-25 -230 0
-230 -232 0
-44 -230 0
-230 -233 0
-25 -26 0
-26 -232 0
-26 -44 0
-26 -233 0
-25 -232 0
-25 -44 0
-25 -233 0
-44 -232 0
-232 -233 0
-44 -233 0
-68 -246 0
-35 -68 0
-24 -68 0
-68 -94 0
-36 -68 0
-68 -208 0
-35 -246 0
-24 -246 0
-94 -246 0
-36 -246 0
-208 -246 0
-24 -35 0
-35 -94 0
-35 -36 0
-35 -208 0
-24 -94 0
-24 -36 0
-24 -208 0
-36 -94 0
-94 -208 0
-36 -208 0
-124 -142 0
-29 -142 0
-142 -222 0
-68 -142 0
-29 -124 0
-124 -222 0
-68 -124 0
-29 -222 0
-29 -68 0
-68 -222 0
-161 -288 0
-28 -288 0
-230 -288 0
-246 -288 0
-28 -161 0
-161 -230 0
-161 -246 0
-28 -230 0
-28 -246 0
-230 -246 0
-220 -235 0
-75 -220 0
-204 -220 0
-87 -220 0
-26 -220 0
-35 -220 0
-75 -235 0
-204 -235 0
-87 -235 0
-26 -235 0
-35 -235 0
-75 -204 0
-75 -87 0
-26 -75 0
-35 -75 0
-87 -204 0
-26 -204 0
-35 -204 0
-26 -87 0
-35 -87 0
-26 -35 0
-224 -242 0
-145 -224 0
-107 -224 0
-83 -224 0
-25 -224 0
-24 -224 0
-145 -242 0
-107 -242 0
-83 -242 0
-25 -242 0
-24 -242 0
-107 -145 0
-83 -145 0
-25 -145 0
-24 -145 0
-83 -107 0
-25 -107 0
-24 -107 0
-25 -83 0
-24 -83 0
-24 -25 0
-85 -127 0
-127 -289 0
-31 -127 0
-27 -127 0
-127 -232 0
-94 -127 0
-85 -289 0
-31 -85 0
-27 -85 0
-85 -232 0
-85 -94 0
-31 -289 0
-27 -289 0
-232 -289 0
-94 -289 0
-27 -31 0
-31 -232 0
-31 -94 0
-27 -232 0
-27 -94 0
-94 -232 0
-102 -158 0
-154 -158 0
-44 -158 0
-36 -158 0
-102 -154 0
-44 -102 0
-36 -102 0
-44 -154 0
-36 -154 0
-36 -44 0
-30 -263 0
-81 -263 0
-233 -263 0
-208 -263 0
-30 -81 0
-30 -233 0
-30 -208 0
-81 -233 0
-81 -208 0
-208 -233 0
-42 -114 0
-42 -172 0
-42 -140 0
-23 -42 0
-42 -171 0
-114 -172 0
-114 -140 0
-23 -114 0
-114 -171 0
-140 -172 0
-23 -172 0
-171 -172 0
-23 -140 0
-140 -171 0
-23 -171 0
-21 -22 0
-22 -91 0
-22 -103 0
-22 -159 0
-20 -22 0
-21 -91 0
-21 -103 0
-21 -159 0
-20 -21 0
-91 -103 0
-91 -159 0
-20 -91 0
-103 -159 0
-20 -103 0
-20 -159 0
-19 -131 0
-19 -70 0
-19 -151 0
-18 -19 0
-19 -62 0
-17 -19 0
-19 -59 0
-70 -131 0
-131 -151 0
-18 -131 0
-62 -131 0
-17 -131 0
-59 -131 0
-70 -151 0
-18 -70 0
-62 -70 0
-17 -70 0
-59 -70 0
-18 -151 0
-62 -151 0
-17 -151 0
-59 -151 0
-18 -62 0
-17 -18 0
-18 -59 0
-17 -62 0
-59 -62 0
-17 -59 0
-16 -52 0
-16 -47 0
-16 -45 0
-16 -40 0
-15 -16 0
-16 -38 0
-16 -73 0
-47 -52 0
-45 -52 0
-40 -52 0
-15 -52 0
-38 -52 0
-52 -73 0
-45 -47 0
-40 -47 0
-15 -47 0
-38 -47 0
-47 -73 0
-40 -45 0
-15 -45 0
-38 -45 0
-45 -73 0
-15 -40 0
-38 -40 0
-40 -73 0
-15 -38 0
-15 -73 0
-38 -73 0
-14 -146 0
-13 -146 0
-104 -146 0
-146 -205 0
-146 -211 0
-12 -146 0
-11 -146 0
-13 -14 0
-14 -104 0
-14 -205 0
-14 -211 0
-12 -14 0
-11 -14 0
-13 -104 0
-13 -205 0
-13 -211 0
-12 -13 0
-11 -13 0
-104 -205 0
-104 -211 0
-12 -104 0
-11 -104 0
-205 -211 0
-12 -205 0
-11 -205 0
-12 -211 0
-11 -211 0
-11 -12 0
-10 -214 0
-191 -214 0
-143 -214 0
-9 -214 0
-170 -214 0
-141 -214 0
-214 -287 0
-10 -191 0
-10 -143 0
-9 -10 0
-10 -170 0
-10 -141 0
-10 -287 0
-143 -191 0
-9 -191 0
-170 -191 0
-141 -191 0
-191 -287 0
-9 -143 0
-143 -170 0
-141 -143 0
-143 -287 0
-9 -170 0
-9 -141 0
-9 -287 0
-141 -170 0
-170 -287 0
-141 -287 0
-221 -225 0
-8 -221 0
-7 -221 0
-162 -221 0
-184 -221 0
-125 -221 0
-160 -221 0
-8 -225 0
-7 -225 0
-162 -225 0
-184 -225 0
-125 -225 0
-160 -225 0
-7 -8 0
-8 -162 0
-8 -184 0
-8 -125 0
-8 -160 0
-7 -162 0
-7 -184 0
-7 -125 0
-7 -160 0
-162 -184 0
-125 -162 0
-160 -162 0
-125 -184 0
-160 -184 0
-125 -160 0
-236 -243 0
-236 -247 0
-6 -236 0
-236 -250 0
-5 -236 0
-236 -255 0
-236 -257 0
-243 -247 0
-6 -243 0
-243 -250 0
-5 -243 0
-243 -255 0
-243 -257 0
-6 -247 0
-247 -250 0
-5 -247 0
-247 -255 0
-247 -257 0
-6 -250 0
-5 -6 0
-6 -255 0
-6 -257 0
-5 -250 0
-250 -255 0
-250 -257 0
-5 -255 0
-5 -257 0
-255 -257 0
-16 -19 0
-19 -146 0
-19 -214 0
-19 -221 0
-19 -236 0
-16 -146 0
-16 -214 0
-16 -221 0
-16 -236 0
-146 -214 0
-146 -221 0
-146 -236 0
-214 -221 0
-214 -236 0
-221 -236 0
-52 -131 0
-14 -131 0
-10 -131 0
-131 -225 0
-131 -243 0
-14 -52 0
-10 -52 0
-52 -225 0
-52 -243 0
-10 -14 0
-14 -225 0
-14 -243 0
-10 -225 0
-10 -243 0
-225 -243 0
-22 -42 0
-42 -70 0
-42 -47 0
-13 -42 0
-42 -191 0
-8 -42 0
-42 -247 0
-22 -70 0
-22 -47 0
-13 -22 0
-22 -191 0
-8 -22 0
-22 -247 0
-47 -70 0
-13 -70 0
-70 -191 0
-8 -70 0
-70 -247 0
-13 -47 0
-47 -191 0
-8 -47 0
-47 -247 0
-13 -191 0
-8 -13 0
-13 -247 0
-8 -191 0
-191 -247 0
-8 -247 0
-21 -114 0
-114 -151 0
-45 -114 0
-104 -114 0
-114 -143 0
-7 -114 0
-6 -114 0
-21 -151 0
-21 -45 0
-21 -104 0
-21 -143 0
-7 -21 0
-6 -21 0
-45 -151 0
-104 -151 0
-143 -151 0
-7 -151 0
-6 -151 0
-45 -104 0
-45 -143 0
-7 -45 0
-6 -45 0
-104 -143 0
-7 -104 0
-6 -104 0
-7 -143 0
-6 -143 0
-6 -7 0
-91 -172 0
-18 -172 0
-40 -172 0
-172 -205 0
-9 -172 0
-162 -172 0
-172 -250 0
-18 -91 0
-40 -91 0
-91 -205 0
-9 -91 0
-91 -162 0
-91 -250 0
-18 -40 0
-18 -205 0
-9 -18 0
-18 -162 0
-18 -250 0
-40 -205 0
-9 -40 0
-40 -162 0
-40 -250 0
-9 -205 0
-162 -205 0
-205 -250 0
-9 -162 0
-9 -250 0
-162 -250 0
-103 -140 0
-62 -140 0
-15 -140 0
-140 -211 0
-140 -170 0
-140 -184 0
-5 -140 0
-62 -103 0
-15 -103 0
-103 -211 0
-103 -170 0
-103 -184 0
-5 -103 0
-15 -62 0
-62 -211 0
-62 -170 0
-62 -184 0
-5 -62 0
-15 -211 0
-15 -170 0
-15 -184 0
-5 -15 0
-170 -211 0
-184 -211 0
-5 -211 0
-170 -184 0
-5 -170 0
-5 -184 0
-23 -159 0
-17 -23 0
-23 -38 0
-12 -23 0
-23 -141 0
-23 -125 0
-23 -255 0
-17 -159 0
-38 -159 0
-12 -159 0
-141 -159 0
-125 -159 0
-159 -255 0
-17 -38 0
-12 -17 0
-17 -141 0
-17 -125 0
-17 -255 0
-12 -38 0
-38 -141 0
-38 -125 0
-38 -255 0
-12 -141 0
-12 -125 0
-12 -255 0
-125 -141 0
-141 -255 0
-125 -255 0
-20 -171 0
-59 -171 0
-73 -171 0
-11 -171 0
-171 -287 0
-160 -171 0
-171 -257 0
-20 -59 0
-20 -73 0
-11 -20 0
-20 -287 0
-20 -160 0
-20 -257 0
-59 -73 0
-11 -59 0
-59 -287 0
-59 -160 0
-59 -257 0
-11 -73 0
-73 -287 0
-73 -160 0
-73 -257 0
-11 -287 0
-11 -160 0
-11 -257 0
-160 -287 0
-257 -287 0
-160 -257 0
-112 -189 0
-112 -197 0
-112 -176 0
-189 -197 0
-176 -189 0
-176 -197 0
-4 -90 0
-4 -89 0
-3 -4 0
-89 -90 0
-3 -90 0
-3 -89 0
-121 -180 0
-2 -215 0
-2 -217 0
-215 -217 0
-1 -173 0
-92 -173 0
-1 -92 0
-2 -173 0
-4 -112 0
-112 -180 0
-4 -180 0
-90 -189 0
-121 -189 0
-90 -121 0
-89 -197 0
-197 -215 0
-1 -197 0
-89 -215 0
-1 -89 0
-1 -215 0
-3 -176 0
-176 -217 0
-92 -176 0
-3 -217 0
-3 -92 0
-92 -217 0
-55 -118 0
-76 -261 0
-99 -261 0
-168 -261 0
-261 -264 0
-201 -261 0
-76 -99 0
-76 -168 0
-76 -264 0
-76 -201 0
-99 -168 0
-99 -264 0
-99 -201 0
-168 -264 0
-168 -201 0
-201 -264 0
-133 -135 0
-71 -133 0
-53 -133 0
-95 -133 0
-48 -133 0
-71 -135 0
-53 -135 0
-95 -135 0
-48 -135 0
-53 -71 0
-71 -95 0
-48 -71 0
-53 -95 0
-48 -53 0
-48 -95 0
-129 -276 0
-122 -129 0
-129 -175 0
-129 -252 0
-116 -129 0
-122 -276 0
-175 -276 0
-252 -276 0
-116 -276 0
-122 -175 0
-122 -252 0
-116 -122 0
-175 -252 0
-116 -175 0
-116 -252 0
-82 -153 0
-153 -281 0
-37 -153 0
-153 -207 0
-93 -153 0
-82 -281 0
-37 -82 0
-82 -207 0
-82 -93 0
-37 -281 0
-207 -281 0
-93 -281 0
-37 -207 0
-37 -93 0
-93 -207 0
-142 -288 0
-124 -142 0
-142 -161 0
-124 -288 0
-161 -288 0
-124 -161 0
-144 -157 0
-144 -193 0
-144 -198 0
-108 -144 0
-101 -144 0
-157 -193 0
-157 -198 0
-108 -157 0
-101 -157 0
-193 -198 0
-108 -193 0
-101 -193 0
-108 -198 0
-101 -198 0
-101 -108 0
-164 -165 0
-165 -228 0
-165 -179 0
-165 -239 0
-165 -244 0
-165 -277 0
-165 -254 0
-98 -165 0
-164 -228 0
-164 -179 0
-164 -239 0
-164 -244 0
-164 -277 0
-164 -254 0
-98 -164 0
-179 -228 0
-228 -239 0
-228 -244 0
-228 -277 0
-228 -254 0
-98 -228 0
-179 -239 0
-179 -244 0
-179 -277 0
-179 -254 0
-98 -179 0
-239 -244 0
-239 -277 0
-239 -254 0
-98 -239 0
-244 -277 0
-244 -254 0
-98 -244 0
-254 -277 0
-98 -277 0
-98 -254 0
-139 -218 0
-181 -218 0
-186 -218 0
-139 -181 0
-139 -186 0
-181 -186 0
-33 -152 0
-220 -224 0
-127 -220 0
-220 -235 0
-220 -242 0
-85 -220 0
-127 -224 0
-224 -235 0
-224 -242 0
-85 -224 0
-127 -235 0
-127 -242 0
-85 -127 0
-235 -242 0
-85 -235 0
-85 -242 0
-42 -114 0
-42 -172 0
-22 -42 0
-21 -42 0
-42 -91 0
-114 -172 0
-22 -114 0
-21 -114 0
-91 -114 0
-22 -172 0
-21 -172 0
-91 -172 0
-21 -22 0
-22 -91 0
-21 -91 0
-112 -189 0
-4 -112 0
-90 -112 0
-4 -189 0
-90 -189 0
-4 -90 0
-120 -262 0
-130 -262 0
-192 -262 0
-238 -262 0
-202 -262 0
-150 -262 0
-88 -262 0
-262 -265 0
-120 -130 0
-120 -192 0
-120 -238 0
-120 -202 0
-120 -150 0
-88 -120 0
-120 -265 0
-130 -192 0
-130 -238 0
-130 -202 0
-130 -150 0
-88 -130 0
-130 -265 0
-192 -238 0
-192 -202 0
-150 -192 0
-88 -192 0
-192 -265 0
-202 -238 0
-150 -238 0
-88 -238 0
-238 -265 0
-150 -202 0
-88 -202 0
-202 -265 0
-88 -150 0
-150 -265 0
-88 -265 0
-96 -272 0
-39 -272 0
-74 -272 0
-39 -96 0
-74 -96 0
-39 -74 0
-109 -241 0
-109 -169 0
-169 -241 0
-57 -105 0
-105 -280 0
-105 -166 0
-57 -280 0
-57 -166 0
-166 -280 0
-23 -140 0
-140 -171 0
-103 -140 0
-140 -159 0
-20 -140 0
-23 -171 0
-23 -103 0
-23 -159 0
-20 -23 0
-103 -171 0
-159 -171 0
-20 -171 0
-103 -159 0
-20 -103 0
-20 -159 0
-176 -197 0
-89 -197 0
-3 -197 0
-89 -176 0
-3 -176 0
-3 -89 0
-110 -258 0
-106 -258 0
-56 -258 0
-106 -110 0
-56 -110 0
-56 -106 0
-86 -266 0
-223 -266 0
-51 -266 0
-67 -266 0
-34 -266 0
-86 -223 0
-51 -86 0
-67 -86 0
-34 -86 0
-51 -223 0
-67 -223 0
-34 -223 0
-51 -67 0
-34 -51 0
-34 -67 0
-187 -273 0
-190 -273 0
-226 -273 0
-100 -273 0
-149 -273 0
-187 -190 0
-187 -226 0
-100 -187 0
-149 -187 0
-190 -226 0
-100 -190 0
-149 -190 0
-100 -226 0
-149 -226 0
-100 -149 0
-134 -137 0
-137 -177 0
-137 -156 0
-134 -177 0
-134 -156 0
-156 -177 0
-54 -282 0
-117 -282 0
-65 -282 0
-282 -284 0
-185 -282 0
-54 -117 0
-54 -65 0
-54 -284 0
-54 -185 0
-65 -117 0
-117 -284 0
-117 -185 0
-65 -284 0
-65 -185 0
-185 -284 0
-19 -131 0
-16 -19 0
-19 -52 0
-19 -146 0
-14 -19 0
-16 -131 0
-52 -131 0
-131 -146 0
-14 -131 0
-16 -52 0
-16 -146 0
-14 -16 0
-52 -146 0
-14 -52 0
-14 -146 0
-69 -148 0
-46 -69 0
-69 -182 0
-46 -148 0
-148 -182 0
-46 -182 0
-80 -155 0
-50 -80 0
-43 -80 0
-80 -200 0
-32 -80 0
-50 -155 0
-43 -155 0
-155 -200 0
-32 -155 0
-43 -50 0
-50 -200 0
-32 -50 0
-43 -200 0
-32 -43 0
-32 -200 0
-167 -178 0
-41 -167 0
-41 -178 0
-66 -79 0
-79 -249 0
-79 -119 0
-66 -249 0
-66 -119 0
-119 -249 0
-75 -145 0
-75 -289 0
-75 -204 0
-75 -107 0
-31 -75 0
-145 -289 0
-145 -204 0
-107 -145 0
-31 -145 0
-204 -289 0
-107 -289 0
-31 -289 0
-107 -204 0
-31 -204 0
-31 -107 0
-70 -151 0
-18 -70 0
-47 -70 0
-45 -70 0
-40 -70 0
-13 -70 0
-70 -104 0
-70 -205 0
-18 -151 0
-47 -151 0
-45 -151 0
-40 -151 0
-13 -151 0
-104 -151 0
-151 -205 0
-18 -47 0
-18 -45 0
-18 -40 0
-13 -18 0
-18 -104 0
-18 -205 0
-45 -47 0
-40 -47 0
-13 -47 0
-47 -104 0
-47 -205 0
-40 -45 0
-13 -45 0
-45 -104 0
-45 -205 0
-13 -40 0
-40 -104 0
-40 -205 0
-13 -104 0
-13 -205 0
-104 -205 0
-121 -180 0
-64 -267 0
-61 -64 0
-64 -234 0
-64 -188 0
-64 -195 0
-64 -206 0
-64 -268 0
-64 -269 0
-61 -267 0
-234 -267 0
-188 -267 0
-195 -267 0
-206 -267 0
-267 -268 0
-267 -269 0
-61 -234 0
-61 -188 0
-61 -195 0
-61 -206 0
-61 -268 0
-61 -269 0
-188 -234 0
-195 -234 0
-206 -234 0
-234 -268 0
-234 -269 0
-188 -195 0
-188 -206 0
-188 -268 0
-188 -269 0
-195 -206 0
-195 -268 0
-195 -269 0
-206 -268 0
-206 -269 0
-268 -269 0
-63 -128 0
-63 -126 0
-63 -84 0
-126 -128 0
-84 -128 0
-84 -126 0
-78 -283 0
-209 -283 0
-283 -285 0
-78 -209 0
-78 -285 0
-209 -285 0
-158 -263 0
-102 -158 0
-30 -158 0
-102 -263 0
-30 -263 0
-30 -102 0
-17 -62 0
-59 -62 0
-15 -62 0
-38 -62 0
-62 -73 0
-62 -211 0
-12 -62 0
-11 -62 0
-17 -59 0
-15 -17 0
-17 -38 0
-17 -73 0
-17 -211 0
-12 -17 0
-11 -17 0
-15 -59 0
-38 -59 0
-59 -73 0
-59 -211 0
-12 -59 0
-11 -59 0
-15 -38 0
-15 -73 0
-15 -211 0
-12 -15 0
-11 -15 0
-38 -73 0
-38 -211 0
-12 -38 0
-11 -38 0
-73 -211 0
-12 -73 0
-11 -73 0
-12 -211 0
-11 -211 0
-11 -12 0
-212 -274 0
-212 -275 0
-194 -212 0
-212 -237 0
-199 -212 0
-274 -275 0
-194 -274 0
-237 -274 0
-199 -274 0
-194 -275 0
-237 -275 0
-199 -275 0
-194 -237 0
-194 -199 0
-199 -237 0
-278 -279 0
-60 -278 0
-227 -278 0
-60 -279 0
-227 -279 0
-60 -227 0
-163 -229 0
-163 -240 0
-163 -245 0
-229 -240 0
-229 -245 0
-240 -245 0
-213 -259 0
-111 -213 0
-213 -219 0
-138 -213 0
-58 -213 0
-111 -259 0
-219 -259 0
-138 -259 0
-58 -259 0
-111 -219 0
-111 -138 0
-58 -111 0
-138 -219 0
-58 -219 0
-58 -138 0
-28 -29 0
-29 -222 0
-29 -230 0
-29 -68 0
-29 -246 0
-28 -222 0
-28 -230 0
-28 -68 0
-28 -246 0
-222 -230 0
-68 -222 0
-222 -246 0
-68 -230 0
-230 -246 0
-68 -246 0
-10 -214 0
-214 -221 0
-214 -225 0
-214 -236 0
-214 -243 0
-10 -221 0
-10 -225 0
-10 -236 0
-10 -243 0
-221 -225 0
-221 -236 0
-221 -243 0
-225 -236 0
-225 -243 0
-236 -243 0
-2 -173 0
-231 -260 0
-196 -260 0
-248 -260 0
-196 -231 0
-231 -248 0
-196 -248 0
-77 -203 0
-132 -136 0
-72 -132 0
-132 -271 0
-97 -132 0
-49 -132 0
-72 -136 0
-136 -271 0
-97 -136 0
-49 -136 0
-72 -271 0
-72 -97 0
-49 -72 0
-97 -271 0
-49 -271 0
-49 -97 0
-83 -87 0
-27 -87 0
-26 -87 0
-25 -87 0
-87 -232 0
-35 -87 0
-24 -87 0
-87 -94 0
-27 -83 0
-26 -83 0
-25 -83 0
-83 -232 0
-35 -83 0
-24 -83 0
-83 -94 0
-26 -27 0
-25 -27 0
-27 -232 0
-27 -35 0
-24 -27 0
-27 -94 0
-25 -26 0
-26 -232 0
-26 -35 0
-24 -26 0
-26 -94 0
-25 -232 0
-25 -35 0
-24 -25 0
-25 -94 0
-35 -232 0
-24 -232 0
-94 -232 0
-24 -35 0
-35 -94 0
-24 -94 0
-143 -191 0
-9 -191 0
-8 -191 0
-7 -191 0
-162 -191 0
-191 -247 0
-6 -191 0
-191 -250 0
-9 -143 0
-8 -143 0
-7 -143 0
-143 -162 0
-143 -247 0
-6 -143 0
-143 -250 0
-8 -9 0
-7 -9 0
-9 -162 0
-9 -247 0
-6 -9 0
-9 -250 0
-7 -8 0
-8 -162 0
-8 -247 0
-6 -8 0
-8 -250 0
-7 -162 0
-7 -247 0
-6 -7 0
-7 -250 0
-162 -247 0
-6 -162 0
-162 -250 0
-6 -247 0
-247 -250 0
-6 -250 0
-113 -256 0
-251 -270 0
-210 -270 0
-210 -251 0
-123 -174 0
-123 -253 0
-115 -123 0
-174 -253 0
-115 -174 0
-115 -253 0
-147 -216 0
-147 -183 0
-147 -286 0
-183 -216 0
-216 -286 0
-183 -286 0
-81 -154 0
-44 -154 0
-154 -233 0
-36 -154 0
-154 -208 0
-44 -81 0
-81 -233 0
-36 -81 0
-81 -208 0
-44 -233 0
-36 -44 0
-44 -208 0
-36 -233 0
-208 -233 0
-36 -208 0
-141 -170 0
-170 -287 0
-170 -184 0
-125 -170 0
-160 -170 0
-5 -170 0
-170 -255 0
-170 -257 0
-141 -287 0
-141 -184 0
-125 -141 0
-141 -160 0
-5 -141 0
-141 -255 0
-141 -257 0
-184 -287 0
-125 -287 0
-160 -287 0
-5 -287 0
-255 -287 0
-257 -287 0
-125 -184 0
-160 -184 0
-5 -184 0
-184 -255 0
-184 -257 0
-125 -160 0
-5 -125 0
-125 -255 0
-125 -257 0
-5 -160 0
-160 -255 0
-160 -257 0
-5 -255 0
-5 -257 0
-255 -257 0
-215 -217 0
-1 -215 0
-92 -215 0
-1 -217 0
-92 -217 0
-1 -92 0
